p edge 75 278
e 1 14
e 1 26
e 1 35
e 1 37
e 1 42
e 1 45
e 1 48
e 1 60
e 1 70
e 2 31
e 2 42
e 2 48
e 2 51
e 2 55
e 2 56
e 2 69
e 2 73
e 3 11
e 3 12
e 3 33
e 3 41
e 3 48
e 3 54
e 3 60
e 3 63
e 3 68
e 4 32
e 4 38
e 4 42
e 4 50
e 4 66
e 4 70
e 5 8
e 5 16
e 5 18
e 5 19
e 5 22
e 5 27
e 5 30
e 5 46
e 5 49
e 5 51
e 6 36
e 6 44
e 6 54
e 7 24
e 7 26
e 7 36
e 7 46
e 7 52
e 7 55
e 7 60
e 7 66
e 8 29
e 8 42
e 8 45
e 8 52
e 8 60
e 8 68
e 8 74
e 9 10
e 9 28
e 9 37
e 9 42
e 9 49
e 9 70
e 9 75
e 10 34
e 10 35
e 10 48
e 10 50
e 11 16
e 11 28
e 11 30
e 11 34
e 11 35
e 12 14
e 12 37
e 12 42
e 12 65
e 13 35
e 13 44
e 13 47
e 13 50
e 13 55
e 13 58
e 13 59
e 13 61
e 13 62
e 14 18
e 14 22
e 14 27
e 14 33
e 14 42
e 14 44
e 14 55
e 14 63
e 14 71
e 14 75
e 15 18
e 15 25
e 15 58
e 15 62
e 16 18
e 16 26
e 16 28
e 16 29
e 16 32
e 16 36
e 16 49
e 17 22
e 17 29
e 17 31
e 17 38
e 17 40
e 17 43
e 17 45
e 17 52
e 17 56
e 18 21
e 18 33
e 18 37
e 18 40
e 18 41
e 18 50
e 18 52
e 18 53
e 19 30
e 19 34
e 19 57
e 19 58
e 19 59
e 19 60
e 19 63
e 20 29
e 20 42
e 20 49
e 20 52
e 20 54
e 20 66
e 21 23
e 21 24
e 21 26
e 21 38
e 21 41
e 21 62
e 21 63
e 21 70
e 21 72
e 21 75
e 22 31
e 22 54
e 22 57
e 22 58
e 22 61
e 22 68
e 22 70
e 22 75
e 23 33
e 23 38
e 23 40
e 23 49
e 23 74
e 24 34
e 24 49
e 24 50
e 24 70
e 24 72
e 25 34
e 25 48
e 25 59
e 25 67
e 25 71
e 25 72
e 26 30
e 26 39
e 26 60
e 26 69
e 27 41
e 27 42
e 27 55
e 27 60
e 27 61
e 27 73
e 27 75
e 28 46
e 28 52
e 28 61
e 28 62
e 29 32
e 29 47
e 29 51
e 29 75
e 30 63
e 31 34
e 31 41
e 31 72
e 31 73
e 32 42
e 32 56
e 32 68
e 33 50
e 33 63
e 33 74
e 34 37
e 34 42
e 34 55
e 34 66
e 34 74
e 35 38
e 35 41
e 36 70
e 37 50
e 37 57
e 37 59
e 38 39
e 38 42
e 38 54
e 39 46
e 39 60
e 39 73
e 39 74
e 40 45
e 40 47
e 40 65
e 41 70
e 42 46
e 42 61
e 42 75
e 43 45
e 43 55
e 43 71
e 44 47
e 44 56
e 44 66
e 45 48
e 45 67
e 46 70
e 47 50
e 47 51
e 47 59
e 47 60
e 47 61
e 47 75
e 48 55
e 48 58
e 48 71
e 48 73
e 49 52
e 49 68
e 49 73
e 49 75
e 50 66
e 50 73
e 51 52
e 51 55
e 51 71
e 51 75
e 52 56
e 52 59
e 52 64
e 53 74
e 54 75
e 55 60
e 56 58
e 56 66
e 57 68
e 58 61
e 58 65
e 59 60
e 59 66
e 61 67
e 63 64
e 64 71
e 65 72
e 66 69
e 71 73
e 74 75
